data/solutions/planning/wellformed/hard/weighting/wellformed_hard_instance6_cplex.sol
Elapsed time: 64.86
Nodes explored: 224027
Nodes left: 115689
Relative gap: 0.002
Upper bound: 181582495.0
Lower bound: 181578407
C[0]=177504.0
C[1]=177496.0
C[2]=177496.0
C[3]=177496.0
C[4]=177496.0
C[5]=177496.0
C[6]=177496.0
C[7]=177496.0
C[8]=177496.0
C[9]=177487.0
y[0]=6
y[1]=1
y[2]=6
y[3]=3
y[4]=9
y[5]=9
y[6]=4
y[7]=4
y[8]=6
y[9]=9
y[10]=2
y[11]=8
y[12]=8
y[13]=6
y[14]=7
y[15]=9
y[16]=7
y[17]=1
y[18]=3
y[19]=0
y[20]=8
y[21]=9
y[22]=5
y[23]=9
y[24]=0
y[25]=9
y[26]=2
y[27]=0
y[28]=0
y[29]=3
y[30]=9
y[31]=9
y[32]=4
y[33]=8
y[34]=2
y[35]=4
y[36]=6
y[37]=2
y[38]=9
y[39]=1
y[40]=9
y[41]=5
y[42]=0
y[43]=9
y[44]=0
y[45]=6
y[46]=9
y[47]=5
y[48]=3
y[49]=1
y[50]=2
y[51]=8
y[52]=8
y[53]=5
y[54]=3
y[55]=9
y[56]=6
y[57]=0
y[58]=3
y[59]=1
y[60]=3
y[61]=5
y[62]=6
y[63]=1
y[64]=3
y[65]=0
y[66]=3
y[67]=9
y[68]=7
y[69]=9
y[70]=3
y[71]=9
y[72]=9
y[73]=0
y[74]=8
y[75]=0
y[76]=2
y[77]=0
y[78]=0
y[79]=2
y[80]=0
y[81]=6
y[82]=8
y[83]=3
y[84]=2
y[85]=6
y[86]=7
y[87]=9
y[88]=9
y[89]=5
y[90]=9
y[91]=2
y[92]=8
y[93]=7
y[94]=1
y[95]=1
y[96]=3
y[97]=7
y[98]=5
y[99]=5
y[100]=5
y[101]=8
y[102]=0
y[103]=3
y[104]=9
y[105]=8
y[106]=0
y[107]=3
y[108]=1
y[109]=3
y[110]=0
y[111]=7
y[112]=3
y[113]=0
y[114]=6
y[115]=7
y[116]=2
y[117]=8
y[118]=2
y[119]=1
y[120]=0
y[121]=9
y[122]=7
y[123]=8
y[124]=3
y[125]=9
y[126]=6
y[127]=1
y[128]=0
y[129]=8
y[130]=0
y[131]=3
y[132]=9
y[133]=3
y[134]=1
y[135]=9
y[136]=9
y[137]=4
y[138]=3
y[139]=7
y[140]=6
y[141]=4
y[142]=0
y[143]=9
y[144]=2
y[145]=7
y[146]=9
y[147]=8
y[148]=7
y[149]=1
y[150]=9
y[151]=9
y[152]=3
y[153]=4
y[154]=5
y[155]=9
y[156]=6
y[157]=3
y[158]=3
y[159]=9
y[160]=4
y[161]=3
y[162]=4
y[163]=9
y[164]=9
y[165]=3
y[166]=2
y[167]=3
y[168]=9
y[169]=3
y[170]=9
y[171]=0
y[172]=9
y[173]=3
y[174]=5
y[175]=5
y[176]=1
y[177]=5
y[178]=4
y[179]=7
y[180]=5
y[181]=1
y[182]=3
y[183]=9
y[184]=0
y[185]=3
y[186]=9
y[187]=6
y[188]=4
y[189]=8
y[190]=1
y[191]=2
y[192]=4
y[193]=4
y[194]=3
y[195]=6
y[196]=6
y[197]=4
y[198]=2
y[199]=3
