data/solutions/planning/wellformed/hard/weighting/wellformed_hard_instance6_cplex.log

Log started (V12.6.3.0) Sun Mar  4 13:20:03 2018

New value for default parallel thread count: 1

Problem '/tmp/tmpnrBAqC.pyomo.lp' read.
Read time = 0.00 sec. (0.12 ticks)

Problem name         : /tmp/tmpnrBAqC.pyomo.lp
Objective sense      : Minimize
Variables            :    2011  [Nneg: 11,  Binary: 2000]
Objective nonzeros   :      10
Linear constraints   :     220  [Less: 9,  Equal: 211]
  Nonzeros           :    4029
  RHS nonzeros       :     201

Variables            : Min LB: 0.000000         Max UB: 1.000000       
Objective nonzeros   : Min   : 1.000000         Max   : 512.0000       
Linear constraints   :
  Nonzeros           : Min   : 1.000000         Max   : 19988.00       
  RHS nonzeros       : Min   : 1.000000         Max   : 1.000000       
Found incumbent of value 9.0877901e+08 after 0.00 sec. (0.17 ticks)
Tried aggregator 2 times.
MIP Presolve eliminated 1 rows and 1 columns.
Aggregator did 2 substitutions.
Reduced MIP has 217 rows, 2008 columns, and 4024 nonzeros.
Reduced MIP has 2000 binaries, 0 generals, 0 SOSs, and 0 indicators.
Presolve time = 0.00 sec. (3.17 ticks)
Probing fixed 0 vars, tightened 38 bounds.
Probing time = 0.01 sec. (19.26 ticks)
Tried aggregator 1 time.
Reduced MIP has 217 rows, 2008 columns, and 4024 nonzeros.
Reduced MIP has 2000 binaries, 8 generals, 0 SOSs, and 0 indicators.
Presolve time = 0.00 sec. (2.12 ticks)
Probing time = 0.00 sec. (1.71 ticks)
Clique table members: 200.
MIP emphasis: balance optimality and feasibility.
MIP search method: dynamic search.
Parallel mode: none, using 1 thread.
Root relaxation solution time = 0.01 sec. (8.07 ticks)

        Nodes                                         Cuts/
   Node  Left     Objective  IInf  Best Integer    Best Bound    ItCnt     Gap

*     0+    0                       9.08779e+08        0.0000           100.00%
      0     0   1.81578e+08    25   9.08779e+08   1.81578e+08      349   80.02%
      0     0   1.81578e+08    39   9.08779e+08     Fract: 10      371   80.02%
      0     0   1.81578e+08    33   9.08779e+08       Cuts: 3      379   80.02%
      0     0   1.81578e+08    32   9.08779e+08     Covers: 2      383   80.02%
*     0+    0                       1.97631e+08   1.81578e+08             8.12%
      0     2   1.81578e+08    25   1.97631e+08   1.81578e+08      383    8.12%
Elapsed time = 0.09 sec. (117.21 ticks, tree = 0.01 MB, solutions = 2)
*   180+  180                       1.97221e+08   1.81578e+08             7.93%
    266   268   1.81578e+08    24   1.97221e+08   1.81578e+08     2679    7.93%
    267   269   1.81578e+08    24   1.97221e+08   1.81578e+08     2692    7.93%
    268   270   1.81578e+08    24   1.97221e+08   1.81578e+08     2717    7.93%
    269   271   1.81578e+08    24   1.97221e+08   1.81578e+08     2732    7.93%
    270   272   1.81578e+08    23   1.97221e+08   1.81578e+08     2746    7.93%
    271   273   1.81578e+08    23   1.97221e+08   1.81578e+08     2748    7.93%
    272   274   1.81578e+08    24   1.97221e+08   1.81578e+08     2757    7.93%
    273   275   1.81578e+08    23   1.97221e+08   1.81578e+08     2762    7.93%
    274   276   1.81578e+08    23   1.97221e+08   1.81578e+08     2772    7.93%
*   494+  466                       1.85026e+08   1.81578e+08             1.86%
*   494+  466                       1.84187e+08   1.81578e+08             1.42%
*   494+  466                       1.84154e+08   1.81578e+08             1.40%
*   494+  466                       1.83821e+08   1.81578e+08             1.22%
*   494+  466                       1.83748e+08   1.81578e+08             1.18%
*   494+  466                       1.83471e+08   1.81578e+08             1.03%
*   496+  468                       1.83470e+08   1.81578e+08             1.03%
*   498+  313                       1.83432e+08   1.81578e+08             1.01%
*   498+  209                       1.83376e+08   1.81578e+08             0.98%
    508   216   1.81578e+08    16   1.83376e+08   1.81578e+08     6700    0.98%
Elapsed time = 0.90 sec. (1071.52 ticks, tree = 0.29 MB, solutions = 12)
*  1197+  632                       1.83330e+08   1.81578e+08             0.96%
   1209   642   1.81578e+08    17   1.83330e+08   1.81578e+08    10665    0.96%
   1210   643   1.82414e+08    12   1.83330e+08   1.81578e+08    10760    0.96%
   1211   644   1.81578e+08    17   1.83330e+08   1.81578e+08    10761    0.96%
   1212   645   1.81578e+08    17   1.83330e+08   1.81578e+08    10835    0.96%
   1213   646   1.81578e+08    17   1.83330e+08   1.81578e+08    10836    0.96%
   1214   646   1.81578e+08    18   1.83330e+08   1.81578e+08    10837    0.96%
   1215   646   1.81578e+08    18   1.83330e+08   1.81578e+08    10838    0.96%
   1216   646   1.81578e+08    18   1.83330e+08   1.81578e+08    10840    0.96%
   1217   646   1.81578e+08    18   1.83330e+08   1.81578e+08    10842    0.96%
   1218   647   1.81578e+08    18   1.83330e+08   1.81578e+08    10842    0.96%
Elapsed time = 1.72 sec. (2039.95 ticks, tree = 0.87 MB, solutions = 13)
*  1397+  806                       1.83277e+08   1.81578e+08             0.93%
*  1397+  806                       1.83274e+08   1.81578e+08             0.93%
*  1997+ 1157                       1.83021e+08   1.81578e+08             0.79%
   2397  1524   1.82856e+08    15   1.83021e+08   1.81578e+08    16526    0.79%
   2398  1525   1.82856e+08    15   1.83021e+08   1.81578e+08    16541    0.79%
   2399  1526   1.82856e+08    15   1.83021e+08   1.81578e+08    16542    0.79%
   2400  1527   1.82856e+08    14   1.83021e+08   1.81578e+08    16544    0.79%
   2401  1528   1.82856e+08    15   1.83021e+08   1.81578e+08    16568    0.79%
   2402  1529   1.82856e+08    15   1.83021e+08   1.81578e+08    16570    0.79%
   2403  1530   1.82856e+08    15   1.83021e+08   1.81578e+08    16571    0.79%
   2404  1529        cutoff         1.83021e+08   1.81578e+08    16576    0.79%
   2405  1530   1.82856e+08    15   1.83021e+08   1.81578e+08    16578    0.79%
   2406  1531   1.82856e+08    15   1.83021e+08   1.81578e+08    16581    0.79%
Elapsed time = 2.64 sec. (3001.42 ticks, tree = 2.17 MB, solutions = 16)
*  2497+ 1511                       1.82964e+08   1.81578e+08             0.76%
*  2497+ 1497                       1.82921e+08   1.81578e+08             0.73%
*  2597+ 1422                       1.82854e+08   1.81578e+08             0.70%
*  2597+ 1420                       1.82798e+08   1.81578e+08             0.67%
*  2597+ 1420                       1.82795e+08   1.81578e+08             0.67%
*  3067+ 1852                       1.82791e+08   1.81578e+08             0.66%
*  3097+ 1878                       1.82785e+08   1.81578e+08             0.66%
*  3397+ 2159                       1.82778e+08   1.81578e+08             0.66%
*  3499+ 2257                       1.82777e+08   1.81578e+08             0.66%
*  3677+ 2418                       1.82730e+08   1.81578e+08             0.63%
   3810  2547   1.82699e+08    14   1.82730e+08   1.81578e+08    23383    0.63%
   3811  2548   1.82699e+08    14   1.82730e+08   1.81578e+08    23384    0.63%
   3812  2549   1.82699e+08    14   1.82730e+08   1.81578e+08    23385    0.63%
   3813  2550   1.82699e+08    14   1.82730e+08   1.81578e+08    23386    0.63%
   3814  2551   1.82699e+08    14   1.82730e+08   1.81578e+08    23387    0.63%
   3815  2552   1.82699e+08    14   1.82730e+08   1.81578e+08    23388    0.63%
   3816  2553   1.82699e+08    14   1.82730e+08   1.81578e+08    23389    0.63%
   3817  2554   1.82699e+08    14   1.82730e+08   1.81578e+08    23390    0.63%
   3818  2555   1.82699e+08    14   1.82730e+08   1.81578e+08    23391    0.63%
   3819  2556   1.82699e+08    14   1.82730e+08   1.81578e+08    23392    0.63%
Elapsed time = 3.62 sec. (3958.41 ticks, tree = 3.66 MB, solutions = 26)
   5826  4443   1.82392e+08    12   1.82730e+08   1.81578e+08    32861    0.63%
   5827  4444   1.82392e+08    12   1.82730e+08   1.81578e+08    32862    0.63%
   5828  4445   1.82392e+08    12   1.82730e+08   1.81578e+08    32868    0.63%
   5829  4446   1.82392e+08    13   1.82730e+08   1.81578e+08    32870    0.63%
   5830  4447   1.82392e+08    13   1.82730e+08   1.81578e+08    32878    0.63%
   5831  4448   1.82392e+08    13   1.82730e+08   1.81578e+08    32902    0.63%
   5832  4449   1.82392e+08    13   1.82730e+08   1.81578e+08    32903    0.63%
   5833  4450   1.82392e+08    13   1.82730e+08   1.81578e+08    32911    0.63%
   5834  4451   1.82392e+08    12   1.82730e+08   1.81578e+08    32950    0.63%
   5835  4452   1.82392e+08    12   1.82730e+08   1.81578e+08    32968    0.63%
Elapsed time = 4.49 sec. (4916.23 ticks, tree = 6.46 MB, solutions = 26)
   8742  7292   1.81578e+08    14   1.82730e+08   1.81578e+08    45568    0.63%
   8743  7293   1.81578e+08    14   1.82730e+08   1.81578e+08    45570    0.63%
   8744  7294   1.81578e+08    14   1.82730e+08   1.81578e+08    45572    0.63%
   8745  7295   1.81578e+08    14   1.82730e+08   1.81578e+08    45574    0.63%
   8746  7296   1.81578e+08    14   1.82730e+08   1.81578e+08    45575    0.63%
   8747  7297   1.81578e+08    14   1.82730e+08   1.81578e+08    45576    0.63%
   8748  7298   1.81578e+08    14   1.82730e+08   1.81578e+08    45578    0.63%
   8749  7299   1.81578e+08    14   1.82730e+08   1.81578e+08    45579    0.63%
   8750  7300   1.81578e+08    14   1.82730e+08   1.81578e+08    45580    0.63%
   8751  7301   1.81578e+08    14   1.82730e+08   1.81578e+08    45581    0.63%
Elapsed time = 5.40 sec. (5872.05 ticks, tree = 10.51 MB, solutions = 26)
* 10377+ 8221                       1.82639e+08   1.81578e+08             0.58%
* 10377+ 8221                       1.82636e+08   1.81578e+08             0.58%
  10377  8223   1.81578e+08    16   1.82636e+08   1.81578e+08    52625    0.58%
  10378  8224   1.81578e+08    12   1.82636e+08   1.81578e+08    52627    0.58%
  10379  8225   1.81578e+08    14   1.82636e+08   1.81578e+08    52635    0.58%
  10380  8226   1.81578e+08    14   1.82636e+08   1.81578e+08    52636    0.58%
  10381  8227   1.81578e+08    14   1.82636e+08   1.81578e+08    52637    0.58%
  10382  8228   1.81578e+08    14   1.82636e+08   1.81578e+08    52639    0.58%
  10383  8229   1.81578e+08    15   1.82636e+08   1.81578e+08    52678    0.58%
  10384  8230   1.81578e+08    14   1.82636e+08   1.81578e+08    52711    0.58%
  10385  8231   1.81578e+08    14   1.82636e+08   1.81578e+08    52725    0.58%
  10386  8232   1.81578e+08    14   1.82636e+08   1.81578e+08    52726    0.58%
Elapsed time = 6.36 sec. (6839.78 ticks, tree = 12.02 MB, solutions = 28)
  13740 11524   1.81759e+08    15   1.82636e+08   1.81578e+08    64548    0.58%
  13741 11525   1.81759e+08    15   1.82636e+08   1.81578e+08    64551    0.58%
  13742 11526   1.81759e+08    15   1.82636e+08   1.81578e+08    64553    0.58%
  13743 11527   1.81759e+08    15   1.82636e+08   1.81578e+08    64557    0.58%
  13744 11528   1.81759e+08    15   1.82636e+08   1.81578e+08    64558    0.58%
  13745 11529   1.81759e+08    15   1.82636e+08   1.81578e+08    64562    0.58%
  13746 11530   1.81759e+08    15   1.82636e+08   1.81578e+08    64565    0.58%
  13747 11531   1.81759e+08    15   1.82636e+08   1.81578e+08    64567    0.58%
  13748 11532   1.81759e+08    15   1.82636e+08   1.81578e+08    64569    0.58%
  13749 11533   1.81759e+08    15   1.82636e+08   1.81578e+08    64570    0.58%
Elapsed time = 7.34 sec. (7795.71 ticks, tree = 16.68 MB, solutions = 28)
  16816 14573   1.81578e+08    17   1.82636e+08   1.81578e+08    75527    0.58%
  16817 14574   1.81578e+08    17   1.82636e+08   1.81578e+08    75528    0.58%
  16818 14575   1.81578e+08    17   1.82636e+08   1.81578e+08    75530    0.58%
  16819 14576   1.81578e+08    17   1.82636e+08   1.81578e+08    75531    0.58%
  16820 14577   1.81578e+08    17   1.82636e+08   1.81578e+08    75532    0.58%
  16821 14578   1.81578e+08    17   1.82636e+08   1.81578e+08    75533    0.58%
  16822 14579   1.81578e+08    16   1.82636e+08   1.81578e+08    75535    0.58%
  16823 14580   1.81578e+08    16   1.82636e+08   1.81578e+08    75536    0.58%
  16824 14581   1.81578e+08    16   1.82636e+08   1.81578e+08    75537    0.58%
  16825 14582   1.81578e+08    16   1.82636e+08   1.81578e+08    75539    0.58%
Elapsed time = 8.28 sec. (8751.55 ticks, tree = 21.00 MB, solutions = 28)
  20176 17905   1.81578e+08    15   1.82636e+08   1.81578e+08    85583    0.58%
  20177 17906   1.81578e+08    15   1.82636e+08   1.81578e+08    85585    0.58%
  20178 17907   1.81578e+08    15   1.82636e+08   1.81578e+08    85586    0.58%
  20179 17908   1.81578e+08    15   1.82636e+08   1.81578e+08    85588    0.58%
  20180 17909   1.81578e+08    15   1.82636e+08   1.81578e+08    85589    0.58%
  20181 17910   1.81578e+08    15   1.82636e+08   1.81578e+08    85591    0.58%
  20182 17911   1.81578e+08    15   1.82636e+08   1.81578e+08    85592    0.58%
  20183 17912   1.81578e+08    15   1.82636e+08   1.81578e+08    85593    0.58%
  20184 17913   1.81578e+08    15   1.82636e+08   1.81578e+08    85595    0.58%
  30633 28304   1.82607e+08    14   1.82636e+08   1.81578e+08   116289    0.58%
Elapsed time = 12.24 sec. (12566.50 ticks, tree = 41.07 MB, solutions = 28)
  44288 41598   1.81578e+08    17   1.82636e+08   1.81578e+08   156814    0.58%
  44289 41599   1.81578e+08    17   1.82636e+08   1.81578e+08   156816    0.58%
  44290 41600   1.81578e+08    17   1.82636e+08   1.81578e+08   156817    0.58%
  44291 41601   1.81578e+08    17   1.82636e+08   1.81578e+08   156819    0.58%
  44292 41602   1.81578e+08    17   1.82636e+08   1.81578e+08   156820    0.58%
  44293 41603   1.81578e+08    17   1.82636e+08   1.81578e+08   156821    0.58%
  44294 41604   1.81578e+08    17   1.82636e+08   1.81578e+08   156822    0.58%
  44295 41605   1.81578e+08    16   1.82636e+08   1.81578e+08   156839    0.58%
  44296 41606   1.81578e+08    17   1.82636e+08   1.81578e+08   156848    0.58%
  44297 41607   1.81578e+08    16   1.82636e+08   1.81578e+08   156858    0.58%
Elapsed time = 16.23 sec. (16383.70 ticks, tree = 60.84 MB, solutions = 28)
* 51897+48819                       1.82623e+08   1.81578e+08             0.57%
  57289 54149   1.81953e+08    14   1.82623e+08   1.81578e+08   193466    0.57%
  57290 54150   1.81953e+08    15   1.82623e+08   1.81578e+08   193467    0.57%
  57291 54151   1.81953e+08    15   1.82623e+08   1.81578e+08   193472    0.57%
  57292 54152   1.81953e+08    15   1.82623e+08   1.81578e+08   193474    0.57%
  57293 54153   1.81953e+08    16   1.82623e+08   1.81578e+08   193508    0.57%
  57294 54154   1.81953e+08    15   1.82623e+08   1.81578e+08   193513    0.57%
  57295 54155   1.81953e+08    14   1.82623e+08   1.81578e+08   193515    0.57%
  57296 54156   1.81953e+08    14   1.82623e+08   1.81578e+08   193517    0.57%
  57297 54157   1.81953e+08    15   1.82623e+08   1.81578e+08   193519    0.57%
  57298 54158   1.81953e+08    15   1.82623e+08   1.81578e+08   193520    0.57%
Elapsed time = 20.12 sec. (20202.12 ticks, tree = 78.13 MB, solutions = 29)
* 67097+63153                       1.82617e+08   1.81578e+08             0.57%
  72011 68047   1.81578e+08    17   1.82617e+08   1.81578e+08   228421    0.57%
  72012 68048   1.81578e+08    17   1.82617e+08   1.81578e+08   228423    0.57%
  72013 68049   1.81578e+08    16   1.82617e+08   1.81578e+08   228425    0.57%
  72014 68050   1.81578e+08    16   1.82617e+08   1.81578e+08   228426    0.57%
  72015 68051   1.81578e+08    16   1.82617e+08   1.81578e+08   228427    0.57%
  72016 68052   1.81578e+08    16   1.82617e+08   1.81578e+08   228428    0.57%
  72017 68053   1.81578e+08    16   1.82617e+08   1.81578e+08   228430    0.57%
  72018 68054   1.81578e+08    16   1.82617e+08   1.81578e+08   228431    0.57%
  72019 68055   1.81578e+08    16   1.82617e+08   1.81578e+08   228434    0.57%
  72020 68056   1.81578e+08    16   1.82617e+08   1.81578e+08   228435    0.57%
Elapsed time = 24.04 sec. (24019.96 ticks, tree = 99.06 MB, solutions = 30)
  85051 80971   1.81578e+08    16   1.82617e+08   1.81578e+08   258552    0.57%
  85052 80972   1.81578e+08    16   1.82617e+08   1.81578e+08   258553    0.57%
  85053 80973   1.81578e+08    18   1.82617e+08   1.81578e+08   258569    0.57%
  85054 80974   1.81578e+08    17   1.82617e+08   1.81578e+08   258573    0.57%
  85055 80975   1.81578e+08    18   1.82617e+08   1.81578e+08   258574    0.57%
  85056 80976   1.81578e+08    18   1.82617e+08   1.81578e+08   258575    0.57%
  85057 80977   1.81578e+08    17   1.82617e+08   1.81578e+08   258578    0.57%
  85058 80978   1.81578e+08    18   1.82617e+08   1.81578e+08   258582    0.57%
  85059 80979   1.81578e+08    17   1.82617e+08   1.81578e+08   258583    0.57%
  85060 80980   1.81578e+08    18   1.82617e+08   1.81578e+08   258584    0.57%
Elapsed time = 28.26 sec. (27837.49 ticks, tree = 116.92 MB, solutions = 30)
* 87597+83346                       1.82611e+08   1.81578e+08             0.57%
  98682 94344   1.81578e+08    18   1.82611e+08   1.81578e+08   288111    0.57%
  98683 94345   1.81578e+08    18   1.82611e+08   1.81578e+08   288112    0.57%
  98684 94346   1.81578e+08    18   1.82611e+08   1.81578e+08   288113    0.57%
  98685 94347   1.81578e+08    18   1.82611e+08   1.81578e+08   288114    0.57%
  98686 94348   1.81578e+08    18   1.82611e+08   1.81578e+08   288122    0.57%
  98687 94349   1.81578e+08    18   1.82611e+08   1.81578e+08   288126    0.57%
  98688 94350   1.81578e+08    18   1.82611e+08   1.81578e+08   288127    0.57%
  98689 94351   1.81578e+08    18   1.82611e+08   1.81578e+08   288129    0.57%
  98690 94352   1.81578e+08    18   1.82611e+08   1.81578e+08   288130    0.57%
  98691 94353   1.81578e+08    18   1.82611e+08   1.81578e+08   288132    0.57%
Elapsed time = 32.51 sec. (31654.36 ticks, tree = 135.46 MB, solutions = 31)
 112242 107708   1.81578e+08    16   1.82611e+08   1.81578e+08   315787    0.57%
 112243 107709   1.81578e+08    15   1.82611e+08   1.81578e+08   315790    0.57%
 112244 107710   1.81579e+08    17   1.82611e+08   1.81578e+08   315794    0.57%
 112245 107710   1.81615e+08    16   1.82611e+08   1.81578e+08   315800    0.57%
 112246 107711   1.81615e+08    11   1.82611e+08   1.81578e+08   315807    0.57%
 112247 107710    infeasible         1.82611e+08   1.81578e+08   315813    0.57%
 112248 107709    infeasible         1.82611e+08   1.81578e+08   315820    0.57%
 112249 107710   1.81578e+08    13   1.82611e+08   1.81578e+08   315828    0.57%
 112250 107711   1.81578e+08    12   1.82611e+08   1.81578e+08   315830    0.57%
 112251 107712   1.81578e+08    12   1.82611e+08   1.81578e+08   315835    0.57%
Elapsed time = 36.68 sec. (35525.50 ticks, tree = 154.40 MB, solutions = 31)
*118327+101467                       1.81996e+08   1.81578e+08             0.23%
*118331 101295      integral     0   1.81984e+08   1.81578e+08   325823    0.22%
*118335 100721      integral     0   1.81932e+08   1.81578e+08   325826    0.19%
*118353 100681      integral     0   1.81912e+08   1.81578e+08   325836    0.18%
*118355 100470      integral     0   1.81884e+08   1.81578e+08   325838    0.17%
*118357 100469      integral     0   1.81876e+08   1.81578e+08   325840    0.16%
*118359 100162      integral     0   1.81852e+08   1.81578e+08   325842    0.15%
 125358 106708   1.81578e+08    14   1.81852e+08   1.81578e+08   336282    0.15%
 125359 106709   1.81578e+08    12   1.81852e+08   1.81578e+08   336283    0.15%
 125360 106710   1.81578e+08    12   1.81852e+08   1.81578e+08   336288    0.15%
 125361 106711   1.81578e+08    12   1.81852e+08   1.81578e+08   336290    0.15%
 125362 106712   1.81578e+08    14   1.81852e+08   1.81578e+08   336291    0.15%
 125363 106713   1.81578e+08    13   1.81852e+08   1.81578e+08   336302    0.15%
 125364 106714   1.81578e+08    14   1.81852e+08   1.81578e+08   336303    0.15%
 125365 106715   1.81578e+08    14   1.81852e+08   1.81578e+08   336304    0.15%
 125366 106716   1.81578e+08    14   1.81852e+08   1.81578e+08   336307    0.15%
 125367 106717   1.81578e+08    15   1.81852e+08   1.81578e+08   336308    0.15%
Elapsed time = 40.09 sec. (39342.75 ticks, tree = 154.99 MB, solutions = 38)
*134404 115170      integral     0   1.81851e+08   1.81578e+08   349974    0.15%
*134406 114974      integral     0   1.81843e+08   1.81578e+08   349976    0.15%
*134416 114761      integral     0   1.81839e+08   1.81578e+08   349982    0.14%
*135597+115890                       1.81838e+08   1.81578e+08             0.14%
*137397+117442                       1.81835e+08   1.81578e+08             0.14%
 139323 119279   1.81578e+08    14   1.81835e+08   1.81578e+08   357358    0.14%
 139324 119278    infeasible         1.81835e+08   1.81578e+08   357358    0.14%
 139325 119279   1.81632e+08    12   1.81835e+08   1.81578e+08   357360    0.14%
 139326 119278    infeasible         1.81835e+08   1.81578e+08   357360    0.14%
 139327 119279   1.81780e+08    13   1.81835e+08   1.81578e+08   357370    0.14%
 139328 119280   1.81780e+08    13   1.81835e+08   1.81578e+08   357371    0.14%
 139329 119281   1.81780e+08    13   1.81835e+08   1.81578e+08   357372    0.14%
 139330 119282   1.81780e+08    13   1.81835e+08   1.81578e+08   357373    0.14%
 139331 119283   1.81780e+08    13   1.81835e+08   1.81578e+08   357374    0.14%
 139332 119284   1.81780e+08    13   1.81835e+08   1.81578e+08   357375    0.14%
Elapsed time = 43.69 sec. (43159.64 ticks, tree = 174.43 MB, solutions = 43)
*141897+121444                       1.81830e+08   1.81578e+08             0.14%
*150797+128978                       1.81818e+08   1.81578e+08             0.13%
 153562 131577   1.81663e+08    14   1.81818e+08   1.81578e+08   378792    0.13%
 153563 131578   1.81663e+08    14   1.81818e+08   1.81578e+08   378793    0.13%
 153564 131579   1.81663e+08    14   1.81818e+08   1.81578e+08   378794    0.13%
 153565 131580   1.81663e+08    14   1.81818e+08   1.81578e+08   378795    0.13%
 153566 131581   1.81663e+08    14   1.81818e+08   1.81578e+08   378796    0.13%
 153567 131582   1.81663e+08    14   1.81818e+08   1.81578e+08   378797    0.13%
 153568 131583   1.81663e+08    13   1.81818e+08   1.81578e+08   378800    0.13%
 153569 131584   1.81663e+08    13   1.81818e+08   1.81578e+08   378801    0.13%
 153570 131585   1.81663e+08    13   1.81818e+08   1.81578e+08   378807    0.13%
 153571 131586   1.81663e+08    13   1.81818e+08   1.81578e+08   378813    0.13%
Elapsed time = 47.22 sec. (46977.47 ticks, tree = 195.24 MB, solutions = 45)
*157797+135208                       1.81811e+08   1.81578e+08             0.13%
 166373 143114   1.81771e+08     9   1.81811e+08   1.81578e+08   398470    0.13%
 166374 143115   1.81771e+08    10   1.81811e+08   1.81578e+08   398472    0.13%
 166375 143116   1.81771e+08    10   1.81811e+08   1.81578e+08   398473    0.13%
 166376 143117   1.81771e+08     9   1.81811e+08   1.81578e+08   398475    0.13%
 166377 143118   1.81771e+08    10   1.81811e+08   1.81578e+08   398477    0.13%
 166378 143119   1.81771e+08     9   1.81811e+08   1.81578e+08   398479    0.13%
 166379 143120   1.81771e+08     9   1.81811e+08   1.81578e+08   398480    0.13%
 166380 143121   1.81771e+08    10   1.81811e+08   1.81578e+08   398482    0.13%
 166381 143122   1.81771e+08     9   1.81811e+08   1.81578e+08   398484    0.13%
 166382 143123   1.81771e+08    10   1.81811e+08   1.81578e+08   398486    0.13%
Elapsed time = 50.60 sec. (50794.84 ticks, tree = 213.61 MB, solutions = 46)
 178857 154628   1.81750e+08     8   1.81811e+08   1.81578e+08   417923    0.13%
 178858 154629   1.81750e+08     8   1.81811e+08   1.81578e+08   417924    0.13%
 178859 154630   1.81750e+08     8   1.81811e+08   1.81578e+08   417925    0.13%
 178860 154631   1.81750e+08     8   1.81811e+08   1.81578e+08   417926    0.13%
 178861 154632   1.81750e+08     8   1.81811e+08   1.81578e+08   417927    0.13%
 178862 154633   1.81750e+08     8   1.81811e+08   1.81578e+08   417928    0.13%
 178863 154634   1.81750e+08     9   1.81811e+08   1.81578e+08   417930    0.13%
 178864 154635   1.81750e+08     9   1.81811e+08   1.81578e+08   417931    0.13%
 178865 154636   1.81750e+08     9   1.81811e+08   1.81578e+08   417934    0.13%
 178866 154637   1.81750e+08     8   1.81811e+08   1.81578e+08   417936    0.13%
Elapsed time = 53.72 sec. (54612.01 ticks, tree = 232.76 MB, solutions = 46)
 191616 166448   1.81718e+08     8   1.81811e+08   1.81578e+08   436965    0.13%
 191617 166449   1.81718e+08     8   1.81811e+08   1.81578e+08   436966    0.13%
 191618 166450   1.81718e+08     8   1.81811e+08   1.81578e+08   436967    0.13%
 191619 166451   1.81718e+08     8   1.81811e+08   1.81578e+08   436968    0.13%
 191620 166452   1.81718e+08     9   1.81811e+08   1.81578e+08   436970    0.13%
 191621 166453   1.81718e+08     9   1.81811e+08   1.81578e+08   436971    0.13%
 191622 166454   1.81718e+08     8   1.81811e+08   1.81578e+08   436973    0.13%
 191623 166455   1.81718e+08     8   1.81811e+08   1.81578e+08   436974    0.13%
 191624 166456   1.81718e+08    10   1.81811e+08   1.81578e+08   436989    0.13%
 191625 166455    infeasible         1.81811e+08   1.81578e+08   436989    0.13%
Elapsed time = 56.74 sec. (58428.70 ticks, tree = 253.60 MB, solutions = 46)
*197797+171664                       1.81810e+08   1.81578e+08             0.13%
 204166 177537   1.81801e+08    10   1.81810e+08   1.81578e+08   455577    0.13%
 204167 177538   1.81801e+08    10   1.81810e+08   1.81578e+08   455578    0.13%
 204168 177539   1.81801e+08    10   1.81810e+08   1.81578e+08   455579    0.13%
 204169 177540   1.81801e+08    10   1.81810e+08   1.81578e+08   455580    0.13%
 204170 177541   1.81801e+08    10   1.81810e+08   1.81578e+08   455581    0.13%
 204171 177542   1.81801e+08    10   1.81810e+08   1.81578e+08   455582    0.13%
 204172 177543   1.81801e+08    10   1.81810e+08   1.81578e+08   455583    0.13%
 204173 177544   1.81801e+08    10   1.81810e+08   1.81578e+08   455584    0.13%
 204174 177545   1.81801e+08    10   1.81810e+08   1.81578e+08   455585    0.13%
 204175 177546   1.81801e+08    10   1.81810e+08   1.81578e+08   455586    0.13%
Elapsed time = 59.84 sec. (62245.56 ticks, tree = 272.08 MB, solutions = 47)
*211797+180303                       1.81796e+08   1.81578e+08             0.12%
 216947 184982   1.81599e+08    10   1.81796e+08   1.81578e+08   474799    0.12%
 216948 184983   1.81599e+08    10   1.81796e+08   1.81578e+08   474800    0.12%
 216949 184984   1.81599e+08    10   1.81796e+08   1.81578e+08   474801    0.12%
 216950 184985   1.81599e+08    10   1.81796e+08   1.81578e+08   474802    0.12%
 216951 184984    infeasible         1.81796e+08   1.81578e+08   474802    0.12%
 216952 184985   1.81599e+08    10   1.81796e+08   1.81578e+08   474803    0.12%
 216953 184984    infeasible         1.81796e+08   1.81578e+08   474803    0.12%
 216954 184983    infeasible         1.81796e+08   1.81578e+08   474803    0.12%
 216955 184982    infeasible         1.81796e+08   1.81578e+08   474803    0.12%
 216956 184983   1.81726e+08     8   1.81796e+08   1.81578e+08   474804    0.12%
Elapsed time = 62.95 sec. (66062.53 ticks, tree = 284.50 MB, solutions = 48)
*224027+115688                       1.81582e+08   1.81578e+08             0.00%

Mixed integer rounding cuts applied:  3

Root node processing (before b&c):
  Real time             =    0.10 sec. (117.83 ticks)
Sequential b&c:
  Real time             =   64.67 sec. (68331.15 ticks)
                          ------------
Total (root+branch&cut) =   64.77 sec. (68448.97 ticks)

Solution pool: 49 solutions saved.

MIP - Integer optimal, tolerance (0.0001/1e-06):  Objective =  1.8158249500e+08
Current MIP best bound =  1.8157840700e+08 (gap = 4088, 0.00%)
Solution time =   64.77 sec.  Iterations = 482762  Nodes = 224027 (115689)
Deterministic time = 68448.98 ticks  (1056.87 ticks/sec)


Incumbent solution written to file '/tmp/tmpV7mS4g.cplex.sol'.
